(declare-const X_0 Real)
(declare-const X_1 Real)
(declare-const X_2 Real)
(declare-const X_3 Real)
(declare-const X_4 Real)
(declare-const X_5 Real)
(declare-const X_6 Real)
(declare-const X_7 Real)
(declare-const Y_0 Real)
(declare-const Y_1 Real)
(declare-const Y_2 Real)
(declare-const Y_3 Real)
(declare-const Y_4 Real)
(declare-const Y_5 Real)

(assert (<= (* -1.0 X_0) 1.0))
(assert (<= X_0 1.0))
(assert (<= (* -1.0 X_1) 1.0))
(assert (<= X_1 1.0))
(assert (<= (* -1.0 X_2) 1.0))
(assert (<= X_2 1.0))
(assert (<= (* -1.0 X_3) 1.0))
(assert (<= X_3 1.0))
(assert (<= (* -1.0 X_4) 1.0))
(assert (<= X_4 1.0))
(assert (<= (* -1.0 X_5) 1.0))
(assert (<= X_5 1.0))
(assert (<= (* -1.0 X_6) 1.0))
(assert (<= X_6 1.0))
(assert (<= (* -1.0 X_7) 1.0))
(assert (<= X_7 1.0))

(assert (<= Y_0 2.0))
(assert (<= Y_1 2.0))
